\* project *\
Minimize
Total_Cost: 0.3375 Var_I0 + 0.3375 Var_I1 + 0.3375 Var_I10 + 0.3375 Var_I11
 + 0.3375 Var_I2 + 0.3375 Var_I3 + 0.3375 Var_I4 + 0.3375 Var_I5
 + 0.3375 Var_I6 + 0.3375 Var_I7 + 0.3375 Var_I8 + 0.3375 Var_I9
 + 1822.5 Var_Z0 + 1822.5 Var_Z1 + 1822.5 Var_Z10 + 1822.5 Var_Z11
 + 1822.5 Var_Z2 + 1822.5 Var_Z3 + 1822.5 Var_Z4 + 1822.5 Var_Z5
 + 1822.5 Var_Z6 + 1822.5 Var_Z7 + 1822.5 Var_Z8 + 1822.5 Var_Z9
Subject To
_C1: Var_I0 - Var_I1 + Var_Q1 = 240
_C10: - Var_I10 + Var_I9 + Var_Q10 = 800
_C11: Var_I10 - Var_I11 + Var_Q11 = 2000
_C12: - Var_I0 + Var_Q0 = 1040
_C13: - Var_Q0 + 14400 Var_Z0 >= 0
_C14: - Var_Q1 + 14400 Var_Z1 >= 0
_C15: - Var_Q2 + 14400 Var_Z2 >= 0
_C16: - Var_Q3 + 14400 Var_Z3 >= 0
_C17: - Var_Q4 + 14400 Var_Z4 >= 0
_C18: - Var_Q5 + 14400 Var_Z5 >= 0
_C19: - Var_Q6 + 14400 Var_Z6 >= 0
_C2: Var_I1 - Var_I2 + Var_Q2 = 480
_C20: - Var_Q7 + 14400 Var_Z7 >= 0
_C21: - Var_Q8 + 14400 Var_Z8 >= 0
_C22: - Var_Q9 + 14400 Var_Z9 >= 0
_C23: - Var_Q10 + 14400 Var_Z10 >= 0
_C24: - Var_Q11 + 14400 Var_Z11 >= 0
_C25: Var_I0 + Var_Q1 >= 240
_C26: Var_I1 + Var_Q2 >= 480
_C27: Var_I2 + Var_Q3 >= 400
_C28: Var_I3 + Var_Q4 >= 1600
_C29: Var_I4 + Var_Q5 >= 4400
_C3: Var_I2 - Var_I3 + Var_Q3 = 400
_C30: Var_I5 + Var_Q6 >= 1440
_C31: Var_I6 + Var_Q7 >= 1120
_C32: Var_I7 + Var_Q8 >= 480
_C33: Var_I8 + Var_Q9 >= 400
_C34: Var_I9 + Var_Q10 >= 800
_C35: Var_I10 + Var_Q11 >= 2000
_C36: Var_Q0 >= 1040
_C4: Var_I3 - Var_I4 + Var_Q4 = 1600
_C5: Var_I4 - Var_I5 + Var_Q5 = 4400
_C6: Var_I5 - Var_I6 + Var_Q6 = 1440
_C7: Var_I6 - Var_I7 + Var_Q7 = 1120
_C8: Var_I7 - Var_I8 + Var_Q8 = 480
_C9: Var_I8 - Var_I9 + Var_Q9 = 400
Binaries
Var_Z0
Var_Z1
Var_Z10
Var_Z11
Var_Z2
Var_Z3
Var_Z4
Var_Z5
Var_Z6
Var_Z7
Var_Z8
Var_Z9
End
